(set-info :smt-lib-version 2.6)
(set-logic UFDTNIA)
(set-info :source |
Generated by: Amar Shah
Generated on: 2024-12-11
Generator: Verus
Application: Verification of Rust Program
Target solver: z3
Time limit: 10
Benchmarks generated by the Rust verifier Verus (https://verus-lang.github.io/verus/guide/) on the project Verismo (https://www.usenix.org/conference/osdi24/presentation/zhou) and processed using Mariposa (https://github.com/secure-foundations/mariposa). z3 solves this without nonlinear, but it cannot be expressed in SMTLib without a nonlinear theory.
|)
(set-info :license "https://creativecommons.org/licenses/by/4.0/")
(set-info :category "industrial")
(set-info :status unsat)
(set-option :auto_config false)
(set-option :smt.mbqi false)
(set-option :smt.case_split 3)
(set-option :smt.qi.eager_threshold 100.0)
(set-option :smt.delay_units true)
(set-option :smt.arith.solver 2)
(set-option :smt.arith.nl false)
(set-option :pi.enabled false)
(set-option :rewriter.sort_disjunctions false)
(set-option :smt.arith.solver 6)
(set-info :comment ";; Prelude")
(set-info :comment ";; AIR prelude")
(declare-sort %%Function%% 0)
(declare-sort FuelId 0)
(declare-sort Fuel 0)
(declare-const zero Fuel)
(declare-fun succ (Fuel) Fuel)
(declare-fun fuel_bool (FuelId) Bool)
(declare-fun fuel_bool_default (FuelId) Bool)
(declare-const fuel_defaults Bool)
(assert (=> fuel_defaults (forall ((id FuelId)) (! (= (fuel_bool id) (fuel_bool_default id)) :pattern ((fuel_bool id))))))
(declare-sort Char 0)
(declare-fun char%from_unicode (Int) Char)
(declare-fun char%to_unicode (Char) Int)
(declare-sort StrSlice 0)
(declare-fun str%strslice_is_ascii (StrSlice) Bool)
(declare-fun str%strslice_len (StrSlice) Int)
(declare-fun str%strslice_get_char (StrSlice Int) Char)
(declare-fun str%new_strlit (Int) StrSlice)
(declare-fun str%from_strlit (StrSlice) Int)
(declare-datatypes ((fndef 0)) (((fndef_singleton ))))
(declare-sort Poly 0)
(declare-sort Height 0)
(declare-fun I (Int) Poly)
(declare-fun B (Bool) Poly)
(declare-fun F (fndef) Poly)
(declare-fun %I (Poly) Int)
(declare-fun %B (Poly) Bool)
(declare-fun %F (Poly) fndef)
(declare-fun S (StrSlice) Poly)
(declare-fun %S (Poly) StrSlice)
(declare-fun C (Char) Poly)
(declare-fun %C (Poly) Char)
(declare-sort Type 0)
(declare-const BOOL Type)
(declare-const INT Type)
(declare-const NAT Type)
(declare-const STRSLICE Type)
(declare-const CHAR Type)
(declare-fun UINT (Int) Type)
(declare-fun SINT (Int) Type)
(declare-fun CONST_INT (Int) Type)
(declare-sort Dcr 0)
(declare-const $ Dcr)
(declare-fun REF (Dcr) Dcr)
(declare-fun MUT_REF (Dcr) Dcr)
(declare-fun BOX (Dcr) Dcr)
(declare-fun RC (Dcr) Dcr)
(declare-fun ARC (Dcr) Dcr)
(declare-fun GHOST (Dcr) Dcr)
(declare-fun TRACKED (Dcr) Dcr)
(declare-fun NEVER (Dcr) Dcr)
(declare-fun ARRAY (Dcr Type Dcr Type) Type)
(declare-fun SLICE (Dcr Type) Type)
(declare-fun has_type (Poly Type) Bool)
(declare-fun as_type (Poly Type) Poly)
(declare-fun mk_fun (%%Function%%) %%Function%%)
(declare-fun const_int (Type) Int)
(assert (forall ((i Int)) (! (= i (const_int (CONST_INT i))) :pattern ((CONST_INT i)))))
(assert (forall ((b Bool)) (! (has_type (B b) BOOL) :pattern ((has_type (B b) BOOL)))))
(assert (forall ((x Poly) (True Type)) (! (and (has_type (as_type x True) True) (=> (has_type x True) (= x (as_type x True)))) :pattern ((as_type x True)))))
(assert (forall ((x %%Function%%)) (! (= (mk_fun x) x) :pattern ((mk_fun x)))))
(assert (forall ((x Bool)) (! (= x (%B (B x))) :pattern ((B x)))))
(assert (forall ((x Int)) (! (= x (%I (I x))) :pattern ((I x)))))
(assert (forall ((x Poly)) (! (=> (has_type x BOOL) (= x (B (%B x)))) :pattern ((has_type x BOOL)))))
(assert (forall ((x Poly)) (! (=> (has_type x INT) (= x (I (%I x)))) :pattern ((has_type x INT)))))
(assert (forall ((x Poly)) (! (=> (has_type x NAT) (= x (I (%I x)))) :pattern ((has_type x NAT)))))
(assert (forall ((bits Int) (x Poly)) (! (=> (has_type x (UINT bits)) (= x (I (%I x)))) :pattern ((has_type x (UINT bits))))))
(assert (forall ((bits Int) (x Poly)) (! (=> (has_type x (SINT bits)) (= x (I (%I x)))) :pattern ((has_type x (SINT bits))))))
(assert (forall ((x Int)) (! (= (str%from_strlit (str%new_strlit x)) x) :pattern ((str%new_strlit x)))))
(assert (forall ((x Poly)) (! (=> (has_type x STRSLICE) (= x (S (%S x)))) :pattern ((has_type x STRSLICE)))))
(assert (forall ((x StrSlice)) (! (= x (%S (S x))) :pattern ((S x)))))
(assert (forall ((x StrSlice)) (! (has_type (S x) STRSLICE) :pattern ((has_type (S x) STRSLICE)))))
(declare-fun ext_eq (Bool Type Poly Poly) Bool)
(assert (forall ((deep Bool) (True Type) (x Poly) (y Poly)) (! (= (= x y) (ext_eq deep True x y)) :pattern ((ext_eq deep True x y)))))
(declare-const SZ Int)
(assert (= SZ 64))
(declare-fun uHi (Int) Int)
(declare-fun iLo (Int) Int)
(declare-fun iHi (Int) Int)
(assert (= (uHi 8) 256))
(assert (= (uHi 16) 65536))
(assert (= (uHi 32) 4294967296))
(assert (= (uHi 64) 18446744073709551616))
(assert (= (uHi 128) (+ 1 340282366920938463463374607431768211455)))
(assert (= (iLo 8) (- 128)))
(assert (= (iLo 16) (- 32768)))
(assert (= (iLo 32) (- 2147483648)))
(assert (= (iLo 64) (- 9223372036854775808)))
(assert (= (iLo 128) (- 170141183460469231731687303715884105728)))
(assert (= (iHi 8) 128))
(assert (= (iHi 16) 32768))
(assert (= (iHi 32) 2147483648))
(assert (= (iHi 64) 9223372036854775808))
(assert (= (iHi 128) 170141183460469231731687303715884105728))
(declare-fun nClip (Int) Int)
(declare-fun uClip (Int Int) Int)
(declare-fun iClip (Int Int) Int)
(assert (forall ((i Int)) (! (and (<= 0 (nClip i)) (=> (<= 0 i) (= i (nClip i)))) :pattern ((nClip i)))))
(assert (forall ((bits Int) (i Int)) (! (and (<= 0 (uClip bits i)) (< (uClip bits i) (uHi bits)) (=> (and (<= 0 i) (< i (uHi bits))) (= i (uClip bits i)))) :pattern ((uClip bits i)))))
(assert (forall ((bits Int) (i Int)) (! (and (<= (iLo bits) (iClip bits i)) (< (iClip bits i) (iHi bits)) (=> (and (<= (iLo bits) i) (< i (iHi bits))) (= i (iClip bits i)))) :pattern ((iClip bits i)))))
(declare-fun uInv (Int Int) Bool)
(declare-fun iInv (Int Int) Bool)
(assert (forall ((bits Int) (i Int)) (! (= (uInv bits i) (and (<= 0 i) (< i (uHi bits)))) :pattern ((uInv bits i)))))
(assert (forall ((bits Int) (i Int)) (! (= (iInv bits i) (and (<= (iLo bits) i) (< i (iHi bits)))) :pattern ((iInv bits i)))))
(assert (forall ((x Int)) (! (has_type (I x) INT) :pattern ((has_type (I x) INT)))))
(assert (forall ((x Int)) (! (=> (<= 0 x) (has_type (I x) NAT)) :pattern ((has_type (I x) NAT)))))
(assert (forall ((bits Int) (x Int)) (! (=> (uInv bits x) (has_type (I x) (UINT bits))) :pattern ((has_type (I x) (UINT bits))))))
(assert (forall ((bits Int) (x Int)) (! (=> (iInv bits x) (has_type (I x) (SINT bits))) :pattern ((has_type (I x) (SINT bits))))))
(assert (forall ((x Poly)) (! (=> (has_type x NAT) (<= 0 (%I x))) :pattern ((has_type x NAT)))))
(assert (forall ((bits Int) (x Poly)) (! (=> (has_type x (UINT bits)) (uInv bits (%I x))) :pattern ((has_type x (UINT bits))))))
(assert (forall ((bits Int) (x Poly)) (! (=> (has_type x (SINT bits)) (iInv bits (%I x))) :pattern ((has_type x (SINT bits))))))
(declare-fun Add (Int Int) Int)
(declare-fun Sub (Int Int) Int)
(declare-fun Mul (Int Int) Int)
(declare-fun EucDiv (Int Int) Int)
(declare-fun EucMod (Int Int) Int)
(assert (forall ((x Int) (y Int)) (! (= (Add x y) (+ x y)) :pattern ((Add x y)))))
(assert (forall ((x Int) (y Int)) (! (= (Sub x y) (- x y)) :pattern ((Sub x y)))))
(assert (forall ((x Int) (y Int)) (! (= (Mul x y) (* x y)) :pattern ((Mul x y)))))
(assert (forall ((x Int) (y Int)) (! (= (EucDiv x y) (div x y)) :pattern ((EucDiv x y)))))
(assert (forall ((x Int) (y Int)) (! (= (EucMod x y) (mod x y)) :pattern ((EucMod x y)))))
(assert (forall ((x Int) (y Int)) (! (=> (and (<= 0 x) (<= 0 y)) (<= 0 (Mul x y))) :pattern ((Mul x y)))))
(assert (forall ((x Int) (y Int)) (! (=> (and (<= 0 x) (< 0 y)) (and (<= 0 (EucDiv x y)) (<= (EucDiv x y) x))) :pattern ((EucDiv x y)))))
(assert (forall ((x Int) (y Int)) (! (=> (and (<= 0 x) (< 0 y)) (and (<= 0 (EucMod x y)) (< (EucMod x y) y))) :pattern ((EucMod x y)))))
(assert (forall ((x Poly)) (! (=> (has_type x CHAR) (= x (C (%C x)))) :pattern ((has_type x CHAR)))))
(assert (forall ((x Char)) (! (= x (%C (C x))) :pattern ((C x)))))
(assert (forall ((x Char)) (! (has_type (C x) CHAR) :pattern ((has_type (C x) CHAR)))))
(assert (forall ((x Int)) (! (=> (and (<= 0 x) (< x (uHi 32))) (= x (char%to_unicode (char%from_unicode x)))) :pattern ((char%from_unicode x)))))
(assert (forall ((c Char)) (! (and (<= 0 (char%to_unicode c)) (< (char%to_unicode c) (uHi 32))) :pattern ((char%to_unicode c)))))
(declare-fun height (Poly) Height)
(declare-fun height_lt (Height Height) Bool)
(declare-fun partial-order (Height Height) Bool)
(assert (forall ((x Height)) (partial-order x x)))
(assert (forall ((x Height) (y Height)) (=> (and (partial-order x y) (partial-order y x)) (= x y))))
(assert (forall ((x Height) (y Height) (z Height)) (=> (and (partial-order x y) (partial-order y z)) (partial-order x z))))
(assert (forall ((x Height) (y Height)) (! (= (height_lt x y) (and (partial-order x y) (not (= x y)))) :pattern ((height_lt x y)))))
(declare-fun fun_from_recursive_field (Poly) Poly)
(declare-fun check_decrease_int (Int Int Bool) Bool)
(assert (forall ((cur Int) (prev Int) (otherwise Bool)) (! (= (check_decrease_int cur prev otherwise) (or (and (<= 0 cur) (< cur prev)) (and (= cur prev) otherwise))) :pattern ((check_decrease_int cur prev otherwise)))))
(declare-fun check_decrease_height (Poly Poly Bool) Bool)
(assert (forall ((cur Poly) (prev Poly) (otherwise Bool)) (! (= (check_decrease_height cur prev otherwise) (or (height_lt (height cur) (height prev)) (and (= (height cur) (height prev)) otherwise))) :pattern ((check_decrease_height cur prev otherwise)))))
(declare-fun uintxor (Int Poly Poly) Int)
(declare-fun uintand (Int Poly Poly) Int)
(declare-fun uintor (Int Poly Poly) Int)
(declare-fun uintshr (Int Poly Poly) Int)
(declare-fun uintshl (Int Poly Poly) Int)
(declare-fun uintnot (Int Poly) Int)
(declare-fun singular_mod (Int Int) Int)
(assert (forall ((x Int) (y Int)) (! (=> (not (= y 0)) (= (EucMod x y) (singular_mod x y))) :pattern ((singular_mod x y)))))
(declare-fun closure_req (Type Dcr Type Poly Poly) Bool)
(declare-fun closure_ens (Type Dcr Type Poly Poly Poly) Bool)
(set-info :comment ";; MODULE 'module tspec::math::nonlinear'")
(set-info :comment ";; verismo/src/tspec/math/nonlinear.rs:80:1: 80:60 (#0)")
(set-info :comment ";; Fuel")
(declare-const fuel%verismo!tspec.math.nonlinear.abs. FuelId)
(assert (distinct fuel%verismo!tspec.math.nonlinear.abs.))
(set-info :comment ";; Datatypes")
(declare-datatypes ((tuple%0. 0)) (((tuple%0./tuple%0 ))))
(declare-const TYPE%tuple%0. Type)
(declare-fun Poly%tuple%0. (tuple%0.) Poly)
(declare-fun %Poly%tuple%0. (Poly) tuple%0.)
(assert (forall ((x tuple%0.)) (! (= x (%Poly%tuple%0. (Poly%tuple%0. x))) :pattern ((Poly%tuple%0. x)))))
(assert (forall ((x Poly)) (! (=> (has_type x TYPE%tuple%0.) (= x (Poly%tuple%0. (%Poly%tuple%0. x)))) :pattern ((has_type x TYPE%tuple%0.)))))
(assert (forall ((x tuple%0.)) (! (has_type (Poly%tuple%0. x) TYPE%tuple%0.) :pattern ((has_type (Poly%tuple%0. x) TYPE%tuple%0.)))))
(set-info :comment ";; Function-Decl verismo::tspec::math::nonlinear::abs")
(declare-fun verismo!tspec.math.nonlinear.abs.? (Poly) Int)
(set-info :comment ";; Function-Specs verismo::tspec::math::nonlinear::lemma_mod_from_mul_rel")
(declare-fun req%verismo!tspec.math.nonlinear.lemma_mod_from_mul_rel. (Int Int Int) Bool)
(declare-const %%global_location_label%%0 Bool)
(declare-const %%global_location_label%%1 Bool)
(assert (forall ((a! Int) (b! Int) (c! Int)) (! (= (req%verismo!tspec.math.nonlinear.lemma_mod_from_mul_rel. a! b! c!) (and (=> %%global_location_label%%0 (not (= b! 0))) (=> %%global_location_label%%1 (= a! (Mul b! c!))))) :pattern ((req%verismo!tspec.math.nonlinear.lemma_mod_from_mul_rel. a! b! c!)))))
(declare-fun ens%verismo!tspec.math.nonlinear.lemma_mod_from_mul_rel. (Int Int Int) Bool)
(assert (forall ((a! Int) (b! Int) (c! Int)) (! (= (ens%verismo!tspec.math.nonlinear.lemma_mod_from_mul_rel. a! b! c!) (= (EucMod a! b!) 0)) :pattern ((ens%verismo!tspec.math.nonlinear.lemma_mod_from_mul_rel. a! b! c!)))))
(set-info :comment ";; Function-Axioms verismo::tspec::math::nonlinear::abs")
(assert (fuel_bool_default fuel%verismo!tspec.math.nonlinear.abs.))
(assert (=> (fuel_bool fuel%verismo!tspec.math.nonlinear.abs.) (forall ((a! Poly)) (! (= (verismo!tspec.math.nonlinear.abs.? a!) (ite (> (%I a!) 0) (%I a!) (Sub 0 (%I a!)))) :pattern ((verismo!tspec.math.nonlinear.abs.? a!))))))
(set-info :comment ";; Function-Specs verismo::tspec::math::nonlinear::proof_mul_assoc")
(declare-fun ens%verismo!tspec.math.nonlinear.proof_mul_assoc. (Int Int Int) Bool)
(assert (forall ((a! Int) (b! Int) (c! Int)) (! (= (ens%verismo!tspec.math.nonlinear.proof_mul_assoc. a! b! c!) (= (nClip (Mul (nClip (Add a! b!)) c!)) (nClip (Add (nClip (Mul a! c!)) (nClip (Mul b! c!)))))) :pattern ((ens%verismo!tspec.math.nonlinear.proof_mul_assoc. a! b! c!)))))
(set-info :comment ";; Function-Specs verismo::tspec::math::nonlinear::proof_mul_exchange")
(declare-fun ens%verismo!tspec.math.nonlinear.proof_mul_exchange. (Int Int Int) Bool)
(assert (forall ((a! Int) (b! Int) (ret! Int)) (! (= (ens%verismo!tspec.math.nonlinear.proof_mul_exchange. a! b! ret!) (and (= ret! (Mul a! b!)) (= ret! (Mul b! a!)))) :pattern ((ens%verismo!tspec.math.nonlinear.proof_mul_exchange. a! b! ret!)))))
(set-info :comment ";; Function-Specs verismo::tspec::math::nonlinear::proof_div_mod_rel")
(declare-fun req%verismo!tspec.math.nonlinear.proof_div_mod_rel. (Int Int) Bool)
(declare-const %%global_location_label%%2 Bool)
(assert (forall ((a! Int) (b! Int)) (! (= (req%verismo!tspec.math.nonlinear.proof_div_mod_rel. a! b!) (=> %%global_location_label%%2 (not (= b! 0)))) :pattern ((req%verismo!tspec.math.nonlinear.proof_div_mod_rel. a! b!)))))
(declare-fun ens%verismo!tspec.math.nonlinear.proof_div_mod_rel. (Int Int Int) Bool)
(assert (forall ((a! Int) (b! Int) (ret! Int)) (! (= (ens%verismo!tspec.math.nonlinear.proof_div_mod_rel. a! b! ret!) (and (= ret! (EucDiv a! b!)) (= (Add (Mul ret! b!) (EucMod a! b!)) a!))) :pattern ((ens%verismo!tspec.math.nonlinear.proof_div_mod_rel. a! b! ret!)))))
(set-info :comment ";; Function-Def verismo::tspec::math::nonlinear::proof_div_mod_rel")
(set-info :comment ";; verismo/src/tspec/math/nonlinear.rs:80:1: 80:60 (#0)")
(declare-const ret! Int)
(declare-const a! Int)
(declare-const b! Int)
(assert fuel_defaults)
(assert (not (= b! 0)))
(set-info :comment ";; postcondition not satisfied")
(declare-const %%location_label%%0 Bool)
(set-info :comment ";; postcondition not satisfied")
(declare-const %%location_label%%1 Bool)
(assert (not (=> (= ret! (EucDiv a! b!)) (and (=> %%location_label%%0 (= ret! (EucDiv a! b!))) (=> %%location_label%%1 (= (Add (Mul ret! b!) (EucMod a! b!)) a!))))))
(check-sat)
(exit)
